c --- [ banner ] -------------------------------------------------------------
c 
c CaDiCaL Radically Simplified CDCL SAT Solver
c Copyright (c) 2016-2021 A. Biere, M. Fleury, N. Froleyks
c 
c Version 1.5.2 9c38a080b32c28d805e8e6ca21849856b0cda605
c g++ (Ubuntu 7.5.0-3ubuntu1~18.04) 7.5.0 -Wall -Wextra -O3 -DNDEBUG
c Wed Feb 16 23:15:36 EST 2022 Linux fac-vanhoeve01 5.4.0-99-generic x86_64
c 
c --- [ limit ] --------------------------------------------------------------
c 
c setting time limit to 600 seconds real time (due to '-t 600')
c setting conflict limit to 1000000000 conflicts (due to '1000000000')
c 
c --- [ parsing input ] ------------------------------------------------------
c 
c reading DIMACS file from 'ddfwcnfs/wap06a.col_40.cnf'
c opening file to read 'ddfwcnfs/wap06a.col_40.cnf'
c found 'p cnf 37880 1554267' header
c parsed 1554267 clauses in 1.11 seconds process time
c closing file 'ddfwcnfs/wap06a.col_40.cnf'
c after reading 24566760 bytes 23.4 MB
c 
c --- [ options ] ------------------------------------------------------------
c 
c all options are set to their default value
c 
c --- [ solving ] ------------------------------------------------------------
c 
c time measured in process time since initialization
c 
c  seconds   reductions  redundant   irredundant
c          MB    restarts       trail        variables
c           level   conflicts       glue          remaining
c 
c *  1.11 138  0 0   0    0    0  0% 0 1552667 36280 96%
c {  1.13 139  0 0   0    0    0  0% 0 1552667 36280 96%
c -  1.61 140 37 1   0  302  208  9% 21 1552667 36280 96%
c }  1.72 140 35 1  21 1002  677  8% 22 1552667 36280 96%
c [  1.72 140  0 1  21 1002  677  0% 0 1552667 36280 96%
c O  1.72 140 37 1  21 1003  678  9% 37 1552667 36280 96%
c -  2.91 187 40 2  21 1616  983  9% 38 1552667 36280 96%
c ]  3.03 187 42 2  22 3002 1896 10% 39 1552667 36280 96%
c {  3.03 187 35 2  22 3002 1896  8% 22 1552667 36280 96%
c F  3.04 187 35 2  22 3004 1898  8% 22 1552667 36280 96%
c -  3.77 188 32 3  25 3588 1534 10% 22 1552667 36280 96%
c #  6.13 186 27 3  36 6005 2759 12% 22 1552667 36280 96%
c -  6.96 186 27 4  37 6218 1786 12% 22 1552667 36280 96%
c }  7.05 186 27 4  37 7005 2239 13% 22 1552667 36280 96%
c [  7.05 186 42 4  37 7005 2239 10% 39 1552667 36280 96%
c -  8.13 186 37 5  39 9505 2673 12% 32 1552667 36280 96%
c I  8.19 186 36 5  39 10007 3030 12% 32 1552667 36280 96%
c s  9.08 190 593 5  40 10839 3480 18% 34 1552667 36280 96%
c e 13.54 190 593 5  40 10839 1541 18% 34 1199313 31498 83%
c s 14.38 202 593 5  40 10839 1519 18% 34 1199313 31498 83%
c 
c  seconds    reductions   redundant    irredundant
c          MB     restarts        trail         variables
c            level    conflicts       glue           remaining
c 
c ^ 14.78 202 593 5  40 10839 1519 18% 34 1199313 31498 83%
c - 16.72 184 497 6  42 13450 2876 28% 44 1199313 31498 83%
c ] 16.96 184 442 6  42 15006 4062 26% 48 1199313 31498 83%
c { 16.96 184 27 6  42 15006 4062 15% 22 1199313 31498 83%
c B 19.15 184 29 6  42 15010 4066 15% 22 1199313 31498 83%
c - 19.93 184 41 7 742 17815 2889 11% 26 1199313 31498 83%
c W 20.78 184 50 7 746 21013 4756 11% 25 1199313 31498 83%
c - 21.65 184 52 8 1204 22804 3223 10% 26 1199313 31498 83%
c F 22.06 184 44 8 1304 28014 6398 10% 25 1199313 31498 83%
c - 22.78 184 44 9 1304 28417 4386 10% 25 1199313 31498 83%
c } 24.98 184 42 9 1305 31006 6388  9% 25 1199313 31498 83%
c [ 24.98 184 442 9 1305 31006 6388 26% 48 1199313 31498 83%
c s 25.19 184 414 9 1305 31845 6418 26% 47 1199313 31498 83%
c s 28.42 184 414 9 1305 31845 6241 26% 47 1199313 31498 83%
c ^ 28.76 184 414 9 1305 31845 6241 26% 47 1199313 31498 83%
c - 29.86 185 336 10 1307 34653 5625 22% 48 1199313 31498 83%
c B 30.03 185 309 10 1308 36016 6330 21% 48 1199313 31498 83%
c - 32.14 186 875 11 1311 41514 7017 28% 58 1199313 31498 83%
c W 33.52 186 768 11 1312 45017 9602 25% 60 1199313 31498 83%
c - 34.80 186 679 12 1313 48998 7613 23% 61 1199313 31498 83%
c 
c  seconds    reductions      redundant    irredundant
c          MB      restarts          trail         variables
c            level      conflicts        glue           remaining
c 
c O 38.20 186 583 12 1314 55020 12259 21% 63 1199313 31498 83%
c - 39.21 186 547 13 1316 57106 8377 20% 61 1199313 31498 83%
c ] 40.19 186 463 13 1320 63006 12434 18% 58 1199313 31498 83%
c { 40.19 186 42 13 1320 63006 12434  9% 25 1199313 31498 83%
c s 40.44 186 42 13 1390 63351 11933  9% 25 1199313 31498 83%
c s 43.70 186 42 13 1390 63351 10870  9% 25 1199313 31498 83%
c ^ 44.00 186 42 13 1390 63351 10870  9% 25 1199313 31498 83%
c - 44.91 185 42 14 2023 65840 6730  9% 26 1199313 31498 83%
c B 44.94 185 42 14 2069 66022 6785  9% 26 1199313 31498 83%
c - 47.60 185 50 15 2405 75195 8471  9% 26 1199313 31498 83%
c W 48.49 185 52 15 2405 78023 10695  9% 26 1199313 31498 83%
c - 49.43 185 50 16 2441 85173 9742  8% 25 1199313 31498 83%
c # 49.82 185 47 16 2441 91025 13744  8% 25 1199313 31498 83%
c - 50.59 185 45 17 2443 95775 9853  8% 24 1199313 31498 83%
c B 52.80 185 41 17 2453 105027 16271  8% 24 1199313 31498 83%
c s 52.96 185 41 17 2461 105359 15425  8% 24 1199313 31498 83%
c s 55.78 185 41 17 2461 105359 15256  8% 24 1199313 31498 83%
c ^ 56.01 185 41 17 2461 105359 15256  8% 24 1199313 31498 83%
c - 56.55 185 40 18 2461 107003 10778  8% 23 1199313 31498 83%
c - 58.04 185 36 19 2461 118852 12198  7% 21 1199313 31498 83%
c 
c  seconds   reductions       redundant    irredundant
c          MB     restarts           trail         variables
c           level      conflicts         glue           remaining
c 
c W 59.51 185 35 19 2461 120028 13142  7% 21 1199313 31498 83%
c } 60.19 185 34 19 2461 127006 18689  7% 20 1199313 31498 83%
c [ 60.19 185 463 19 2461 127006 18689 18% 58 1199313 31498 83%
c - 61.52 186 1437 20 2462 131326 13512 23% 59 1199313 31498 83%
c B 62.13 186 1291 20 2466 136032 16936 22% 59 1199313 31498 83%
c - 65.47 187 1087 21 2469 144428 13278 20% 59 1199313 31498 83%
c W 68.33 187 930 21 2470 153034 19030 19% 59 1199313 31498 83%
c s 69.09 187 858 21 2470 157868 22570 19% 58 1199313 31498 83%
c w 70.33 187 858 21 2470 157868 22564 19% 58 1199313 31498 83%
c s 71.95 187 858 21 2470 157868 22511 19% 58 1199313 31498 83%
c ^ 72.25 187 858 21 2470 157868 22511 19% 58 1199313 31498 83%
c - 72.85 187 853 22 2470 158148 14173 19% 58 1199313 31498 83%
c I 74.67 187 695 22 2473 171039 23528 18% 57 1199313 31498 83%
c - 75.86 188 937 23 2474 172500 14983 19% 61 1199313 31498 83%
c - 81.12 190 881 24 2483 187470 16266 25% 67 1199313 31498 83%
c B 81.62 190 876 24 2484 190041 18370 25% 69 1199313 31498 83%
c - 84.61 191 781 25 2488 203062 17119 26% 73 1199313 31498 83%
c W 87.63 191 807 25 2492 210044 23083 28% 74 1199313 31498 83%
c - 89.30 189 729 26 2497 219277 17569 28% 74 1199313 31498 83%
c s 89.72 189 716 26 2498 220878 18863 28% 74 1199313 31498 83%
c 
c  seconds    reductions       redundant    irredundant
c          MB      restarts           trail         variables
c            level      conflicts         glue           remaining
c 
c w 91.04 189 716 26 2498 220878 18858 28% 74 1199313 31498 83%
c e 92.77 189 716 26 2498 220878 18858 28% 74 1199324 31497 83%
c s 92.87 189 716 26 2498 220878 18849 28% 74 1199324 31497 83%
c O 96.97 189 638 26 2500 231046 26142 27% 74 1199324 31497 83%
c - 97.95 188 600 27 2501 236122 17673 26% 72 1199324 31497 83%
c B 100.49 188 497 27 2502 253047 31058 24% 67 1199324 31497 83%
c - 101.14 188 573 28 2502 253587 18652 24% 68 1199324 31497 83%
c ] 101.48 188 768 28 2502 255010 19839 25% 70 1199324 31497 83%
c { 101.48 188 34 28 2502 255010 19839  7% 20 1199324 31497 83%
c - 104.15 188 45 29 6743 271673 18526  8% 23 1199324 31497 83%
c F 106.43 188 46 29 7872 276049 21977  8% 24 1199324 31497 83%
c - 108.45 186 44 30 11352 290383 15140  9% 25 1199324 31497 83%
c B 109.46 186 42 30 13754 300050 19130  9% 25 1199324 31497 83%
c - 110.79 185 50 31 13771 309719 14524  8% 24 1199324 31497 83%
c W 115.05 185 59 31 13815 325051 24488  8% 22 1199324 31497 83%
c - 115.97 185 57 32 13836 329678 17173  8% 22 1199324 31497 83%
c - 120.00 186 50 33 14049 350259 17194  8% 22 1199324 31497 83%
c # 120.07 186 50 33 14049 351054 17571  8% 22 1199324 31497 83%
c - 122.56 186 44 34 14343 371467 16999  7% 22 1199324 31497 83%
c B 123.20 186 43 34 14436 378058 20531  7% 22 1199324 31497 83%
c 
c  seconds    reductions        redundant    irredundant
c           MB      restarts           trail         variables
c            level       conflicts         glue           remaining
c 
c - 127.57 187 47 35 17652 393296 18622  7% 25 1199324 31497 83%
c W 132.35 187 47 35 18779 406060 27253  7% 25 1199324 31497 83%
c - 133.77 186 45 36 18814 415749 19999  7% 25 1199324 31497 83%
c F 135.62 186 42 36 18824 435061 32592  7% 24 1199324 31497 83%
c - 136.59 186 41 37 18830 438826 21047  7% 24 1199324 31497 83%
c - 141.79 186 37 38 18911 462525 21499  7% 24 1199324 31497 83%
c B 142.07 186 37 38 18913 465062 23282  7% 24 1199324 31497 83%
c - 144.48 187 38 39 21239 486848 23194  7% 24 1199324 31497 83%
c W 148.73 187 39 39 21275 496066 30483  7% 24 1199324 31497 83%
c } 150.35 187 40 39 23642 511010 40440  8% 25 1199324 31497 83%
c [ 150.35 187 768 39 23642 511010 40440 25% 70 1199324 31497 83%
c - 151.17 187 784 40 23642 511795 24090 25% 71 1199324 31497 83%
c W 159.28 187 693 40 23642 528070 34926 23% 66 1199324 31497 83%
c - 161.11 188 627 41 23642 537365 24005 22% 64 1199324 31497 83%
c I 164.99 188 492 41 23656 561072 41961 20% 59 1199324 31497 83%
c - 167.75 197 971 42 23656 563559 27204 21% 84 1199324 31497 83%
c - 177.47 203 1089 43 23669 590377 28817 26% 106 1199324 31497 83%
c s 177.64 203 1089 43 23669 590377 27552 26% 106 1199324 31497 83%
c w 179.47 203 1089 43 23669 590377 27549 26% 106 1199324 31497 83%
c B 180.53 203 1044 43 23671 595073 31275 25% 106 1199324 31497 83%
c 
c  seconds     reductions        redundant    irredundant
c           MB       restarts           trail         variables
c             level       conflicts         glue           remaining
c 
c - 186.66 191 841 44 23673 617818 29481 23% 94 1199324 31497 83%
c W 194.84 191 751 44 23679 630075 38516 22% 89 1199324 31497 83%
c - 200.10 194 1111 45 23687 645884 32541 27% 88 1199324 31497 83%
c O 204.61 194 938 45 23695 666078 48291 29% 89 1199324 31497 83%
c - 206.79 194 865 46 23701 674573 30484 28% 86 1199324 31497 83%
c B 213.91 194 661 46 23704 703079 50188 25% 77 1199324 31497 83%
c - 214.75 190 657 47 23704 703886 28456 25% 77 1199324 31497 83%
c - 229.38 201 968 48 23705 733822 33006 30% 89 1199324 31497 83%
c W 240.35 201 984 48 23706 741080 39057 31% 92 1199324 31497 83%
c - 245.90 197 818 49 23706 764384 35104 32% 89 1199324 31497 83%
c I 251.31 197 746 49 23706 780081 45809 33% 82 1199324 31497 83%
c - 258.92 199 1092 50 23706 795573 33067 35% 95 1199324 31497 83%
c B 267.30 199 1139 50 23716 820082 52630 34% 104 1199324 31497 83%
c - 269.37 201 1076 51 23720 827380 34240 33% 100 1199324 31497 83%
c - 278.21 189 795 52 23735 859812 32767 26% 84 1199324 31497 83%
c W 285.59 189 786 52 23735 861083 33628 26% 83 1199324 31497 83%
c - 298.26 199 791 53 23742 892869 35059 29% 96 1199324 31497 83%
c O 300.42 199 725 53 23747 903084 42790 28% 94 1199324 31497 83%
c - 305.64 192 586 54 23757 926547 32924 26% 85 1199324 31497 83%
c B 310.70 192 493 54 23767 946085 47029 24% 79 1199324 31497 83%
c 
c  seconds     reductions        redundant    irredundant
c           MB       restarts           trail         variables
c             level       conflicts         glue           remaining
c 
c - 318.00 196 799 55 23768 960852 36054 27% 88 1199324 31497 83%
c W 332.65 196 680 55 23769 990087 56786 28% 82 1199324 31497 83%
c - 335.42 195 1045 56 23769 995782 35114 30% 86 1199324 31497 83%
c ] 344.08 195 1285 56 23782 1023010 55814 33% 106 1199324 31497 83%
c { 344.08 195 40 56 23782 1023010 55814  8% 25 1199324 31497 83%
c - 345.65 202 45 57 24293 1031331 37230  8% 25 1199324 31497 83%
c s 345.95 202 45 57 24293 1031331 36355  8% 25 1199324 31497 83%
c w 347.72 202 45 57 24293 1031331 36348  8% 25 1199324 31497 83%
c # 348.43 202 48 57 24293 1035088 39266  8% 25 1199324 31497 83%
c - 354.55 188 42 58 24401 1067505 37174  8% 24 1199324 31497 83%
c B 356.43 188 40 58 24412 1081089 46761  8% 24 1199324 31497 83%
c - 359.55 189 39 59 24611 1104303 37563  8% 24 1199324 31497 83%
c W 371.14 189 38 59 24674 1128091 56406  8% 23 1199324 31497 83%
c - 373.02 189 39 60 24817 1141723 38601  8% 23 1199324 31497 83%
c F 379.30 189 41 60 25185 1176092 62161  8% 23 1199324 31497 83%
c - 380.44 189 41 61 25189 1179767 36951  8% 23 1199324 31497 83%
c - 386.20 188 35 62 25316 1218436 32579  7% 22 1199324 31497 83%
c B 387.10 188 35 62 25408 1225093 35916  7% 22 1199324 31497 83%
c - 392.79 190 41 63 33700 1257729 37139  9% 27 1199324 31497 83%
c W 407.55 190 44 63 38134 1275095 50537 10% 28 1199324 31497 83%
c 
c  seconds    reductions         redundant    irredundant
c           MB      restarts            trail         variables
c            level        conflicts         glue           remaining
c 
c - 412.86 192 47 64 43926 1297644 41002 11% 30 1199324 31497 83%
c # 419.13 192 50 64 51216 1326096 63171 12% 32 1199324 31497 83%
c - 422.01 191 48 65 53680 1338184 39008 12% 32 1199324 31497 83%
c B 428.76 191 45 65 54891 1378098 57873 13% 33 1199324 31497 83%
c - 429.64 188 45 66 54892 1379349 29764 13% 33 1199324 31497 83%
c - 440.76 193 60 67 59363 1421137 38443 13% 40 1199324 31497 83%
c W 453.66 193 60 67 59363 1431099 46148 13% 39 1199324 31497 83%
c - 460.28 191 54 68 59414 1463547 41469 13% 38 1199324 31497 83%
c F 464.58 191 51 68 59420 1485101 56450 12% 38 1199324 31497 83%
c - 470.43 191 49 69 59438 1506581 43142 12% 37 1199324 31497 83%
c s 470.61 191 49 69 59438 1506581 41409 12% 37 1199324 31497 83%
c w 472.34 191 49 69 59438 1506581 41391 12% 37 1199324 31497 83%
c B 477.31 191 46 69 59492 1540103 64219 12% 37 1199324 31497 83%
c - 478.95 190 47 70 59579 1550242 42747 12% 36 1199324 31497 83%
c - 486.04 191 58 71 59589 1594523 46196 13% 33 1199324 31497 83%
c W 499.26 191 58 71 59589 1596104 47432 13% 33 1199324 31497 83%
c - 509.03 190 48 72 59591 1639431 46072 12% 31 1199324 31497 83%
c # 511.12 190 46 72 59609 1653105 56789 12% 31 1199324 31497 83%
c - 515.81 190 42 73 59614 1684959 45199 11% 29 1199324 31497 83%
c B 519.65 190 38 73 59614 1711109 64169 10% 28 1199324 31497 83%
c 
c  seconds    reductions         redundant    irredundant
c           MB      restarts            trail         variables
c            level        conflicts         glue           remaining
c 
c - 522.76 189 37 74 59741 1731111 44073 10% 27 1199324 31497 83%
c W 542.80 189 33 74 59812 1770113 67329  9% 26 1199324 31497 83%
c - 544.79 189 35 75 60969 1777888 40235  9% 26 1199324 31497 83%
c - 551.04 189 38 76 61029 1825287 42473  9% 25 1199324 31497 83%
c F 551.67 189 38 76 61033 1830114 45866  9% 25 1199324 31497 83%
c - 558.11 189 34 77 61050 1873311 44600  8% 24 1199324 31497 83%
c B 563.20 189 33 77 61100 1891116 55776  7% 24 1199324 31497 83%
c - 568.04 188 41 78 61170 1921958 41180  7% 23 1199324 31497 83%
c W 589.71 188 46 78 61320 1953117 59404  7% 23 1199324 31497 83%
c - 593.56 188 49 79 62055 1971228 37936  7% 23 1199324 31497 83%
c } 599.49 188 53 79 62303 2011149 60008  7% 22 1199324 31497 83%
c ? 599.49 188 53 79 62303 2011149 60008  7% 22 1199324 31497 83%
c 
c --- [ result ] -------------------------------------------------------------
c 
c UNKNOWN
c 
c --- [ run-time profiling ] -------------------------------------------------
c 
c process time taken by individual solving procedures
c (percentage relative to process time for solving)
c 
c       515.10   86.08% search
c       207.34   34.65% unstable
c       185.52   31.00% stable
c       122.22   20.42% walk
c        83.28   13.92% simplify
c        23.40    3.91% probe
c        16.53    2.76% ternary
c        10.92    1.83% elim
c        10.30    1.72% vivify
c         3.12    0.52% subsume
c         1.11    0.19% parse
c         0.02    0.00% lucky
c   =================================
c       598.37   99.81% solve
c 
c last line shows process time for solving
c (percentage relative to total process time)
c 
c --- [ statistics ] ---------------------------------------------------------
c 
c chronological:            318891        15.86 %  of conflicts
c conflicts:               2011149      3361.02    per second
c decisions:               2892373      4833.72    per second
c eliminated:                 4783        12.63 %  of all variables
c fixed:                      1600         4.22 %  of all variables
c learned:                 1992225        99.06 %  per conflict
c learned_lits:          213151945       100.00 %  learned literals
c minimized:                     0         0.00 %  learned literals
c shrunken:               86419556        40.54 %  learned literals
c minishrunken:            6509461         3.05 %  learned literals
c propagations:          532048939         0.89 M  per second
c reduced:                 1341638        66.71 %  per conflict
c rephased:                     62     32437.89    interval
c restarts:                  62303        32.28    interval
c stabilizing:                   5        33.91 %  of conflicts
c subsumed:                 588589         8.22 %  of all clauses
c strengthened:              21527         0.30 %  of all clauses
c vivified:                    119         0.00 %  of all clauses
c walked:                       20    100557.45    interval
c weakened:                 390440         2.42    average size
c 
c seconds are measured in process time for solving
c 
c --- [ resources ] ----------------------------------------------------------
c 
c total process time since initialization:       599.49    seconds
c total real time since initialization:          600.00    seconds
c maximum resident set size of process:          248.89    MB
c 
c --- [ shutting down ] ------------------------------------------------------
c 
c exit 0
